NAME : P131122.92393.tour
COMMENT : Length = 92393
COMMENT : Found by LKH-3 [Keld Helsgaun] Tue Dec 17 14:07:42 2024
TYPE : TOUR
DIMENSION : 190
TOUR_SECTION
1
171
2
115
172
3
173
4
174
5
175
6
176
7
177
8
157
127
160
178
9
57
179
10
180
11
73
146
181
12
182
13
183
14
25
65
51
24
44
40
158
95
77
76
101
54
29
79
92
90
121
154
135
105
136
129
142
32
58
52
150
124
91
161
155
78
141
70
86
31
41
137
111
47
119
21
88
71
123
46
126
133
104
112
23
61
139
122
149
159
36
68
93
74
144
45
169
108
131
140
67
80
50
38
98
87
110
107
152
125
167
81
27
156
96
114
100
103
37
33
53
164
132
89
28
63
153
22
148
35
143
162
64
34
69
84
66
113
59
83
26
170
75
109
72
106
42
102
48
120
85
49
94
30
118
145
56
60
165
138
116
130
39
43
128
117
168
151
82
97
99
55
62
147
184
15
166
163
134
185
16
186
17
187
18
188
19
189
20
190
-1
EOF
